nb_case = 9;
nb_op = 4;

A = [_,2,_,_,1,0,_,_,_,3];
B = [_,6,_,8,1,_,_,_,1,_];
C = [7,_,_,9,1,_,4,_,1,_];
D = [_,_,_,_,3,_,_,_,1,_];

opA = ["+","+","-","*"];
opB = ["-","*","-","+"];
opC = ["-","*","+","+"];
opD = ["-","*","+","*"];

opAB = "+";
opBC = "-";
opCD = "-";
opDA = "+";

AB = 1;
BC = 1;
CD = 1;
DA = 1;